c description: tiling of 
c generator: CNFgen (0.9.0)
c copyright: (C) 2012-2020 Massimo Lauria <massimo.lauria@uniroma1.it>
c url: https://massimolauria.net/cnfgen
c
p cnf 10 51
-1 -2 0
-1 -4 0
-1 -9 0
-2 -4 0
-2 -9 0
-4 -9 0
1 2 4 9 0
-1 -2 0
-1 -5 0
-2 -5 0
1 2 5 0
-1 -3 0
-1 -4 0
-1 -5 0
-3 -4 0
-3 -5 0
-4 -5 0
1 3 4 5 0
-2 -3 0
-2 -4 0
-2 -5 0
-2 -6 0
-2 -9 0
-3 -4 0
-3 -5 0
-3 -6 0
-3 -9 0
-4 -5 0
-4 -6 0
-4 -9 0
-5 -6 0
-5 -9 0
-6 -9 0
2 3 4 5 6 9 0
-2 -4 0
-2 -7 0
-2 -9 0
-4 -7 0
-4 -9 0
-7 -9 0
2 4 7 9 0
-3 -4 0
-3 -5 0
-4 -5 0
3 4 5 0
-4 -6 0
4 6 0
-7 -9 0
7 9 0
8 0
10 0